
******************************************************************************
This program contains Ipopt, a library for large-scale nonlinear optimization.
 Ipopt is released as open source code under the Eclipse Public License (EPL).
         For more information visit http://projects.coin-or.org/Ipopt
******************************************************************************

This is Ipopt version 3.12.6, running with linear solver ma57.

Number of nonzeros in equality constraint Jacobian...:        0
Number of nonzeros in inequality constraint Jacobian.:    35948
Number of nonzeros in Lagrangian Hessian.............:     6055

Total number of variables............................:      360
                     variables with only lower bounds:        0
                variables with lower and upper bounds:      300
                     variables with only upper bounds:       59
Total number of equality constraints.................:        0
Total number of inequality constraints...............:      946
        inequality constraints with only lower bounds:        0
   inequality constraints with lower and upper bounds:        0
        inequality constraints with only upper bounds:      946

iter    objective    inf_pr   inf_du lg(mu)  ||d||  lg(rg) alpha_du alpha_pr  ls
   0  1.8536373e+00 7.80e+01 1.00e+00  -1.0 0.00e+00    -  0.00e+00 0.00e+00   0
   1  1.9352602e+00 7.78e+01 1.73e+00  -1.0 7.23e+01    -  3.29e-03 2.69e-03h  1
   2  3.1907212e+00 7.68e+01 2.85e+00  -1.0 6.39e+01    -  2.71e-03 1.36e-02f  1
   3  1.3319619e+01 7.36e+01 3.91e+00  -1.0 6.30e+01    -  1.09e-02 4.13e-02f  1
   4  1.8031078e+03 1.24e+01 2.43e+01  -1.0 6.04e+01    -  2.91e-02 8.30e-01h  1
   5  1.8290914e+03 1.17e+01 2.27e+01  -1.0 9.92e+00    -  6.25e-02 6.31e-02h  1
   6  1.8297698e+03 1.16e+01 2.24e+01  -1.0 1.72e+01    -  3.60e-02 7.17e-03h  1
   7  1.8230151e+03 1.09e+01 2.12e+01  -1.0 2.23e+01    -  2.20e-02 6.23e-02f  1
   8  1.7531284e+03 6.84e+00 1.66e+01  -1.0 2.30e+01    -  5.72e-02 3.72e-01f  1
   9  1.7403733e+03 6.65e+00 2.01e+01  -1.0 1.80e+01    -  5.13e-02 2.77e-02f  1
iter    objective    inf_pr   inf_du lg(mu)  ||d||  lg(rg) alpha_du alpha_pr  ls
  10  1.7293588e+03 0.00e+00 4.16e+02  -1.0 1.21e+01    -  5.06e-02 1.00e+00f  1
  11  1.6201022e+03 0.00e+00 3.56e+02  -1.0 1.75e+01    -  4.38e-02 1.46e-01f  1
  12  8.8996931e+02 0.00e+00 3.30e+01  -1.0 2.47e+01    -  4.02e-02 9.06e-01f  1
  13  8.4039019e+02 0.00e+00 2.69e+01  -1.0 1.51e+01    -  5.55e-01 1.87e-01f  1
  14  7.8390227e+02 0.00e+00 1.77e+01  -1.0 1.02e+01    -  8.42e-01 3.48e-01f  1
  15  7.5388073e+02 0.00e+00 9.56e+00  -1.0 6.46e+00    -  9.90e-01 4.84e-01f  1
  16  7.4542553e+02 0.00e+00 2.29e+00  -1.0 2.15e+01    -  9.90e-01 7.87e-01f  1
  17  7.4624535e+02 0.00e+00 4.64e-02  -1.0 7.66e+00    -  9.90e-01 1.00e+00f  1
  18  7.4616504e+02 0.00e+00 1.38e-02  -1.0 4.97e-02    -  9.92e-01 1.00e+00f  1
  19  7.0737879e+02 0.00e+00 3.48e-01  -1.7 1.40e+00    -  5.46e-01 8.97e-01f  1
iter    objective    inf_pr   inf_du lg(mu)  ||d||  lg(rg) alpha_du alpha_pr  ls
  20  7.0593134e+02 0.00e+00 2.00e-07  -1.7 6.57e-01    -  1.00e+00 1.00e+00f  1
  21  6.9777349e+02 0.00e+00 5.95e-01  -3.8 1.46e+00    -  2.56e-01 8.04e-01f  1
  22  6.9521152e+02 0.00e+00 1.06e+00  -3.8 4.73e+00    -  2.73e-01 8.58e-01f  1
  23  6.9463943e+02 0.00e+00 1.83e-01  -3.8 1.24e+00    -  8.93e-01 1.00e+00f  1
  24  6.9463436e+02 0.00e+00 1.50e-09  -3.8 1.04e-02    -  1.00e+00 1.00e+00f  1
  25  6.9455160e+02 0.00e+00 1.26e-02  -5.7 8.00e-02    -  1.00e+00 9.64e-01f  1
  26  6.9454823e+02 0.00e+00 1.85e-11  -5.7 2.96e-03    -  1.00e+00 1.00e+00f  1
  27  6.9454816e+02 0.00e+00 1.84e-11  -5.7 6.48e-04    -  1.00e+00 1.00e+00f  1
  28  6.9454709e+02 0.00e+00 2.34e-04  -8.6 9.88e-04    -  1.00e+00 9.95e-01f  1
  29  6.9454708e+02 0.00e+00 4.24e-13  -8.6 1.71e-04    -  1.00e+00 1.00e+00f  1
iter    objective    inf_pr   inf_du lg(mu)  ||d||  lg(rg) alpha_du alpha_pr  ls
  30  6.9454708e+02 0.00e+00 3.29e-13  -8.6 7.07e-05    -  1.00e+00 1.00e+00h  1
  31  6.9454708e+02 0.00e+00 3.20e-13  -8.6 2.02e-05    -  1.00e+00 1.00e+00h  1
  32  6.9454707e+02 0.00e+00 8.25e-13  -9.0 4.22e-06    -  1.00e+00 1.00e+00h  1

Number of Iterations....: 32

                                   (scaled)                 (unscaled)
Objective...............:   6.9454707470415997e+02    6.9454707470415997e+02
Dual infeasibility......:   8.2549146331712195e-13    8.2549146331712195e-13
Constraint violation....:   0.0000000000000000e+00    0.0000000000000000e+00
Complementarity.........:   3.6059780830880626e-09    3.6059780830880626e-09
Overall NLP error.......:   3.6059780830880626e-09    3.6059780830880626e-09


Number of objective function evaluations             = 33
Number of objective gradient evaluations             = 33
Number of equality constraint evaluations            = 0
Number of inequality constraint evaluations          = 33
Number of equality constraint Jacobian evaluations   = 0
Number of inequality constraint Jacobian evaluations = 33
Number of Lagrangian Hessian evaluations             = 32
Total CPU secs in IPOPT (w/o function evaluations)   =      0.257
Total CPU secs in NLP function evaluations           =      0.070

EXIT: Optimal Solution Found.

************************ CUTEst statistics ************************


 Package used            :  IPOPT
 Problem                 :  LEUVEN7   
 # variables             =             360
 # constraints           =             946
 # objective functions   =        0.6700000E+02
 # objective gradients   =        0.3400000E+02
 # objective Hessians    =        0.3300000E+02
 # Hessian-vector prdct  =        0.0000000E+00
 # constraints functions =        0.6800000E+02
 # constraints gradients =        0.3500000E+02
 # constraints Hessians  =        0.3300000E+02
 Exit code               =               0
 Final f                 =   0.6945471E+03
 Set up time             =            0.17 seconds
 Solve time              =            0.42 seconds


******************************************************************

System Time =       0.2969999909 s.
